results/res_prop_muc/res_Cimatti_mathsat_cores/QF_RDL/orb02_700.smt.smt2.res
unsat
( c0
  c1
  c10
  c114
  c115
  c145
  c2
  c3
  c4
  c44
  c45
  c46
  c47
  c473
  c475
  c48
  c49
  c5
  c50
  c501
  c51
  c52
  c53
  c54
  c55
  c56
  c560
  c57
  c58
  c59
  c6
  c60
  c61
  c62
  c63
  c64
  c65
  c66
  c67
  c68
  c69
  c7
  c70
  c71
  c72
  c73
  c74
  c75
  c76
  c8
  c9 )
